; benchmark generated from python API
(set-info :status unknown)
(declare-fun x_months () Int)
(declare-fun x_beta () Int)
(assert
 (<= (- 1200) x_months))
(assert
 (>= 1199 x_months))
(assert
 (let ((?x4267 (mod x_months 48)))
 (let ((?x211 ((as const (Array Int Int)) 0)))
 (let ((?x213 (store ?x211 0 31)))
 (let ((?x216 (store ?x213 1 30)))
 (let ((?x218 (store ?x216 2 31)))
 (let ((?x220 (store ?x218 3 30)))
 (let ((?x222 (store ?x220 4 31)))
 (let ((?x224 (store ?x222 5 31)))
 (let ((?x226 (store ?x224 6 30)))
 (let ((?x228 (store ?x226 7 31)))
 (let ((?x230 (store ?x228 8 30)))
 (let ((?x232 (store ?x230 9 31)))
 (let ((?x234 (store ?x232 10 31)))
 (let ((?x237 (store ?x234 11 28)))
 (let ((?x239 (store ?x237 12 31)))
 (let ((?x241 (store ?x239 13 30)))
 (let ((?x243 (store ?x241 14 31)))
 (let ((?x245 (store ?x243 15 30)))
 (let ((?x247 (store ?x245 16 31)))
 (let ((?x249 (store ?x247 17 31)))
 (let ((?x251 (store ?x249 18 30)))
 (let ((?x253 (store ?x251 19 31)))
 (let ((?x255 (store ?x253 20 30)))
 (let ((?x257 (store ?x255 21 31)))
 (let ((?x259 (store ?x257 22 31)))
 (let ((?x261 (store ?x259 23 28)))
 (let ((?x263 (store ?x261 24 31)))
 (let ((?x265 (store ?x263 25 30)))
 (let ((?x267 (store ?x265 26 31)))
 (let ((?x269 (store ?x267 27 30)))
 (let ((?x270 (store ?x269 28 31)))
 (let ((?x272 (store ?x270 29 31)))
 (let ((?x273 (store ?x272 30 30)))
 (let ((?x274 (store ?x273 31 31)))
 (let ((?x276 (store ?x274 32 30)))
 (let ((?x278 (store ?x276 33 31)))
 (let ((?x280 (store ?x278 34 31)))
 (let ((?x282 (store ?x280 35 28)))
 (let ((?x284 (store ?x282 36 31)))
 (let ((?x286 (store ?x284 37 30)))
 (let ((?x288 (store ?x286 38 31)))
 (let ((?x290 (store ?x288 39 30)))
 (let ((?x292 (store ?x290 40 31)))
 (let ((?x294 (store ?x292 41 31)))
 (let ((?x296 (store ?x294 42 30)))
 (let ((?x298 (store ?x296 43 31)))
 (let ((?x300 (store ?x298 44 30)))
 (let ((?x302 (store ?x300 45 31)))
 (let ((?x304 (store ?x302 46 31)))
 (let ((?x306 (store ?x304 47 29)))
 (let ((?x5300 (select ?x306 ?x4267)))
 (let ((?x3300 (ite (or (= 22802 (+ x_months 24003)) (= 25202 (+ x_months 24003))) 28 ?x5300)))
 (let (($x3340 (<= 0 x_beta)))
 (and $x3340 (< x_beta ?x3300))))))))))))))))))))))))))))))))))))))))))))))))))))))))
(assert
 (let (($x3340 (<= 0 x_beta)))
 (or (> x_months (- (+ (* 2020 12) 1) 24003)) (and (= x_months (- (+ (* 2020 12) 1) 24003)) $x3340))))
(assert
 (let (($x971 (and (= x_months (- (+ (* 2020 12) 2) 24003)) (>= 27 x_beta))))
 (or (< x_months (- (+ (* 2020 12) 2) 24003)) $x971)))
(assert
 (let ((?x5155 (+ x_months 0)))
(let ((?x2818 (mod ?x5155 48)))
(let ((?x5012 (ite (> 22803 (+ ?x5155 24003)) 1 (ite (<= 25203 (+ ?x5155 24003)) (- 1) 0))))
(let ((?x211 ((as const (Array Int Int)) 0)))
(let ((?x213 (store ?x211 0 31)))
(let ((?x216 (store ?x213 1 30)))
(let ((?x218 (store ?x216 2 31)))
(let ((?x220 (store ?x218 3 30)))
(let ((?x222 (store ?x220 4 31)))
(let ((?x224 (store ?x222 5 31)))
(let ((?x226 (store ?x224 6 30)))
(let ((?x228 (store ?x226 7 31)))
(let ((?x230 (store ?x228 8 30)))
(let ((?x232 (store ?x230 9 31)))
(let ((?x234 (store ?x232 10 31)))
(let ((?x237 (store ?x234 11 28)))
(let ((?x239 (store ?x237 12 31)))
(let ((?x241 (store ?x239 13 30)))
(let ((?x243 (store ?x241 14 31)))
(let ((?x245 (store ?x243 15 30)))
(let ((?x247 (store ?x245 16 31)))
(let ((?x249 (store ?x247 17 31)))
(let ((?x251 (store ?x249 18 30)))
(let ((?x253 (store ?x251 19 31)))
(let ((?x255 (store ?x253 20 30)))
(let ((?x257 (store ?x255 21 31)))
(let ((?x259 (store ?x257 22 31)))
(let ((?x261 (store ?x259 23 28)))
(let ((?x263 (store ?x261 24 31)))
(let ((?x265 (store ?x263 25 30)))
(let ((?x267 (store ?x265 26 31)))
(let ((?x269 (store ?x267 27 30)))
(let ((?x270 (store ?x269 28 31)))
(let ((?x272 (store ?x270 29 31)))
(let ((?x273 (store ?x272 30 30)))
(let ((?x274 (store ?x273 31 31)))
(let ((?x276 (store ?x274 32 30)))
(let ((?x278 (store ?x276 33 31)))
(let ((?x280 (store ?x278 34 31)))
(let ((?x282 (store ?x280 35 28)))
(let ((?x284 (store ?x282 36 31)))
(let ((?x286 (store ?x284 37 30)))
(let ((?x288 (store ?x286 38 31)))
(let ((?x290 (store ?x288 39 30)))
(let ((?x292 (store ?x290 40 31)))
(let ((?x294 (store ?x292 41 31)))
(let ((?x296 (store ?x294 42 30)))
(let ((?x298 (store ?x296 43 31)))
(let ((?x300 (store ?x298 44 30)))
(let ((?x302 (store ?x300 45 31)))
(let ((?x304 (store ?x302 46 31)))
(let ((?x306 (store ?x304 47 29)))
(let ((?x4247 (ite (or (= 22802 (+ ?x5155 24003)) (= 25202 (+ ?x5155 24003))) 28 (select ?x306 ?x2818))))
(let ((?x4248 (- ?x4247 1)))
(let (($x4143 (> 0 x_beta)))
(let ((?x312 (store (store (store (store ?x211 0 0) 1 31) 2 61) 3 92)))
(let ((?x320 (store (store (store (store ?x312 4 122) 5 153) 6 184) 7 214)))
(let ((?x328 (store (store (store (store ?x320 8 245) 9 275) 10 306) 11 337)))
(let ((?x336 (store (store (store (store ?x328 12 365) 13 396) 14 426) 15 457)))
(let ((?x344 (store (store (store (store ?x336 16 487) 17 518) 18 549) 19 579)))
(let ((?x352 (store (store (store (store ?x344 20 610) 21 640) 22 671) 23 702)))
(let ((?x360 (store (store (store (store ?x352 24 730) 25 761) 26 791) 27 822)))
(let ((?x368 (store (store (store (store ?x360 28 852) 29 883) 30 914) 31 944)))
(let ((?x376 (store (store (store (store ?x368 32 975) 33 1005) 34 1036) 35 1067)))
(let ((?x384 (store (store (store (store ?x376 36 1095) 37 1126) 38 1156) 39 1187)))
(let ((?x392 (store (store (store (store ?x384 40 1217) 41 1248) 42 1279) 43 1309)))
(let ((?x400 (store (store (store (store ?x392 44 1340) 45 1370) 46 1401) 47 1432)))
(let ((?x2755 (+ (select ?x400 ?x2818) (ite $x4143 0 (ite (> x_beta ?x4248) ?x4248 x_beta)))))
(let ((?x2633 (+ (+ ?x2755 ?x5012) 365)))
(let ((?x3327 (+ ?x5155 (* (div ?x2633 1461) 48))))
(let ((?x1513 (+ (+ ?x3327 (- 1 ?x2818)) 24003)))
(let ((?x4683 (select ?x400 1)))
(let ((?x2727 (mod ?x2633 1461)))
(let (($x4517 (>= ?x2727 (+ ?x4683 (ite (> 22803 ?x1513) 1 (ite (<= 25203 ?x1513) (- 1) 0))))))
(let ((?x5691 (ite (> 22803 (+ (+ ?x3327 (- 2 ?x2818)) 24003)) 1 (ite (<= 25203 (+ (+ ?x3327 (- 2 ?x2818)) 24003)) (- 1) 0))))
(let ((?x5071 (select ?x400 2)))
(let ((?x5445 (ite (> 22803 (+ (+ ?x3327 (- 3 ?x2818)) 24003)) 1 (ite (<= 25203 (+ (+ ?x3327 (- 3 ?x2818)) 24003)) (- 1) 0))))
(let ((?x2202 (select ?x400 3)))
(let ((?x5378 (ite (>= ?x2727 (+ ?x2202 ?x5445)) 3 (ite (>= ?x2727 (+ ?x5071 ?x5691)) 2 (ite $x4517 1 0)))))
(let ((?x4323 (ite (> 22803 (+ (+ ?x3327 (- 4 ?x2818)) 24003)) 1 (ite (<= 25203 (+ (+ ?x3327 (- 4 ?x2818)) 24003)) (- 1) 0))))
(let ((?x2124 (select ?x400 4)))
(let ((?x3019 (ite (> 22803 (+ (+ ?x3327 (- 5 ?x2818)) 24003)) 1 (ite (<= 25203 (+ (+ ?x3327 (- 5 ?x2818)) 24003)) (- 1) 0))))
(let ((?x2600 (select ?x400 5)))
(let ((?x2988 (ite (>= ?x2727 (+ ?x2600 ?x3019)) 5 (ite (>= ?x2727 (+ ?x2124 ?x4323)) 4 ?x5378))))
(let ((?x3303 (ite (> 22803 (+ (+ ?x3327 (- 6 ?x2818)) 24003)) 1 (ite (<= 25203 (+ (+ ?x3327 (- 6 ?x2818)) 24003)) (- 1) 0))))
(let ((?x2295 (select ?x400 6)))
(let ((?x5642 (ite (> 22803 (+ (+ ?x3327 (- 7 ?x2818)) 24003)) 1 (ite (<= 25203 (+ (+ ?x3327 (- 7 ?x2818)) 24003)) (- 1) 0))))
(let ((?x2094 (select ?x400 7)))
(let ((?x4958 (ite (>= ?x2727 (+ ?x2094 ?x5642)) 7 (ite (>= ?x2727 (+ ?x2295 ?x3303)) 6 ?x2988))))
(let ((?x4791 (ite (> 22803 (+ (+ ?x3327 (- 8 ?x2818)) 24003)) 1 (ite (<= 25203 (+ (+ ?x3327 (- 8 ?x2818)) 24003)) (- 1) 0))))
(let ((?x1746 (select ?x400 8)))
(let ((?x1740 (ite (> 22803 (+ (+ ?x3327 (- 9 ?x2818)) 24003)) 1 (ite (<= 25203 (+ (+ ?x3327 (- 9 ?x2818)) 24003)) (- 1) 0))))
(let ((?x2053 (select ?x400 9)))
(let ((?x1489 (ite (>= ?x2727 (+ ?x2053 ?x1740)) 9 (ite (>= ?x2727 (+ ?x1746 ?x4791)) 8 ?x4958))))
(let ((?x5318 (ite (> 22803 (+ (+ ?x3327 (- 10 ?x2818)) 24003)) 1 (ite (<= 25203 (+ (+ ?x3327 (- 10 ?x2818)) 24003)) (- 1) 0))))
(let ((?x2603 (select ?x400 10)))
(let ((?x1312 (ite (> 22803 (+ (+ ?x3327 (- 11 ?x2818)) 24003)) 1 (ite (<= 25203 (+ (+ ?x3327 (- 11 ?x2818)) 24003)) (- 1) 0))))
(let ((?x1202 (select ?x400 11)))
(let ((?x3953 (ite (>= ?x2727 (+ ?x1202 ?x1312)) 11 (ite (>= ?x2727 (+ ?x2603 ?x5318)) 10 ?x1489))))
(let ((?x4311 (ite (> 22803 (+ (+ ?x3327 (- 12 ?x2818)) 24003)) 1 (ite (<= 25203 (+ (+ ?x3327 (- 12 ?x2818)) 24003)) (- 1) 0))))
(let ((?x2281 (select ?x400 12)))
(let ((?x1994 (ite (> 22803 (+ (+ ?x3327 (- 13 ?x2818)) 24003)) 1 (ite (<= 25203 (+ (+ ?x3327 (- 13 ?x2818)) 24003)) (- 1) 0))))
(let ((?x2614 (select ?x400 13)))
(let ((?x3778 (ite (>= ?x2727 (+ ?x2614 ?x1994)) 13 (ite (>= ?x2727 (+ ?x2281 ?x4311)) 12 ?x3953))))
(let ((?x1141 (ite (> 22803 (+ (+ ?x3327 (- 14 ?x2818)) 24003)) 1 (ite (<= 25203 (+ (+ ?x3327 (- 14 ?x2818)) 24003)) (- 1) 0))))
(let ((?x556 (select ?x400 14)))
(let ((?x5324 (ite (> 22803 (+ (+ ?x3327 (- 15 ?x2818)) 24003)) 1 (ite (<= 25203 (+ (+ ?x3327 (- 15 ?x2818)) 24003)) (- 1) 0))))
(let ((?x2816 (select ?x400 15)))
(let ((?x2107 (ite (>= ?x2727 (+ ?x2816 ?x5324)) 15 (ite (>= ?x2727 (+ ?x556 ?x1141)) 14 ?x3778))))
(let ((?x1892 (ite (> 22803 (+ (+ ?x3327 (- 16 ?x2818)) 24003)) 1 (ite (<= 25203 (+ (+ ?x3327 (- 16 ?x2818)) 24003)) (- 1) 0))))
(let ((?x3277 (select ?x400 16)))
(let ((?x4014 (ite (> 22803 (+ (+ ?x3327 (- 17 ?x2818)) 24003)) 1 (ite (<= 25203 (+ (+ ?x3327 (- 17 ?x2818)) 24003)) (- 1) 0))))
(let ((?x1816 (select ?x400 17)))
(let ((?x4881 (ite (>= ?x2727 (+ ?x1816 ?x4014)) 17 (ite (>= ?x2727 (+ ?x3277 ?x1892)) 16 ?x2107))))
(let ((?x2172 (ite (> 22803 (+ (+ ?x3327 (- 18 ?x2818)) 24003)) 1 (ite (<= 25203 (+ (+ ?x3327 (- 18 ?x2818)) 24003)) (- 1) 0))))
(let ((?x1919 (select ?x400 18)))
(let ((?x5685 (ite (> 22803 (+ (+ ?x3327 (- 19 ?x2818)) 24003)) 1 (ite (<= 25203 (+ (+ ?x3327 (- 19 ?x2818)) 24003)) (- 1) 0))))
(let ((?x2259 (select ?x400 19)))
(let ((?x3018 (ite (>= ?x2727 (+ ?x2259 ?x5685)) 19 (ite (>= ?x2727 (+ ?x1919 ?x2172)) 18 ?x4881))))
(let ((?x4687 (ite (> 22803 (+ (+ ?x3327 (- 20 ?x2818)) 24003)) 1 (ite (<= 25203 (+ (+ ?x3327 (- 20 ?x2818)) 24003)) (- 1) 0))))
(let ((?x5193 (select ?x400 20)))
(let ((?x4583 (ite (> 22803 (+ (+ ?x3327 (- 21 ?x2818)) 24003)) 1 (ite (<= 25203 (+ (+ ?x3327 (- 21 ?x2818)) 24003)) (- 1) 0))))
(let ((?x2772 (select ?x400 21)))
(let ((?x3046 (ite (>= ?x2727 (+ ?x2772 ?x4583)) 21 (ite (>= ?x2727 (+ ?x5193 ?x4687)) 20 ?x3018))))
(let ((?x571 (ite (> 22803 (+ (+ ?x3327 (- 22 ?x2818)) 24003)) 1 (ite (<= 25203 (+ (+ ?x3327 (- 22 ?x2818)) 24003)) (- 1) 0))))
(let ((?x4673 (select ?x400 22)))
(let ((?x5569 (ite (> 22803 (+ (+ ?x3327 (- 23 ?x2818)) 24003)) 1 (ite (<= 25203 (+ (+ ?x3327 (- 23 ?x2818)) 24003)) (- 1) 0))))
(let ((?x5639 (select ?x400 23)))
(let ((?x1364 (ite (>= ?x2727 (+ ?x5639 ?x5569)) 23 (ite (>= ?x2727 (+ ?x4673 ?x571)) 22 ?x3046))))
(let ((?x5301 (ite (> 22803 (+ (+ ?x3327 (- 24 ?x2818)) 24003)) 1 (ite (<= 25203 (+ (+ ?x3327 (- 24 ?x2818)) 24003)) (- 1) 0))))
(let ((?x4482 (select ?x400 24)))
(let ((?x5545 (ite (> 22803 (+ (+ ?x3327 (- 25 ?x2818)) 24003)) 1 (ite (<= 25203 (+ (+ ?x3327 (- 25 ?x2818)) 24003)) (- 1) 0))))
(let ((?x5362 (select ?x400 25)))
(let ((?x4874 (ite (>= ?x2727 (+ ?x5362 ?x5545)) 25 (ite (>= ?x2727 (+ ?x4482 ?x5301)) 24 ?x1364))))
(let ((?x1617 (ite (> 22803 (+ (+ ?x3327 (- 26 ?x2818)) 24003)) 1 (ite (<= 25203 (+ (+ ?x3327 (- 26 ?x2818)) 24003)) (- 1) 0))))
(let ((?x4717 (select ?x400 26)))
(let ((?x2761 (ite (> 22803 (+ (+ ?x3327 (- 27 ?x2818)) 24003)) 1 (ite (<= 25203 (+ (+ ?x3327 (- 27 ?x2818)) 24003)) (- 1) 0))))
(let ((?x5077 (select ?x400 27)))
(let ((?x4353 (ite (>= ?x2727 (+ ?x5077 ?x2761)) 27 (ite (>= ?x2727 (+ ?x4717 ?x1617)) 26 ?x4874))))
(let ((?x5772 (ite (> 22803 (+ (+ ?x3327 (- 28 ?x2818)) 24003)) 1 (ite (<= 25203 (+ (+ ?x3327 (- 28 ?x2818)) 24003)) (- 1) 0))))
(let ((?x4706 (select ?x400 28)))
(let ((?x5656 (ite (> 22803 (+ (+ ?x3327 (- 29 ?x2818)) 24003)) 1 (ite (<= 25203 (+ (+ ?x3327 (- 29 ?x2818)) 24003)) (- 1) 0))))
(let ((?x5424 (select ?x400 29)))
(let ((?x1626 (ite (>= ?x2727 (+ ?x5424 ?x5656)) 29 (ite (>= ?x2727 (+ ?x4706 ?x5772)) 28 ?x4353))))
(let ((?x4908 (ite (> 22803 (+ (+ ?x3327 (- 30 ?x2818)) 24003)) 1 (ite (<= 25203 (+ (+ ?x3327 (- 30 ?x2818)) 24003)) (- 1) 0))))
(let ((?x4221 (select ?x400 30)))
(let ((?x5081 (ite (> 22803 (+ (+ ?x3327 (- 31 ?x2818)) 24003)) 1 (ite (<= 25203 (+ (+ ?x3327 (- 31 ?x2818)) 24003)) (- 1) 0))))
(let ((?x2777 (select ?x400 31)))
(let ((?x1471 (ite (>= ?x2727 (+ ?x2777 ?x5081)) 31 (ite (>= ?x2727 (+ ?x4221 ?x4908)) 30 ?x1626))))
(let ((?x4700 (ite (> 22803 (+ (+ ?x3327 (- 32 ?x2818)) 24003)) 1 (ite (<= 25203 (+ (+ ?x3327 (- 32 ?x2818)) 24003)) (- 1) 0))))
(let ((?x5011 (select ?x400 32)))
(let ((?x5628 (ite (> 22803 (+ (+ ?x3327 (- 33 ?x2818)) 24003)) 1 (ite (<= 25203 (+ (+ ?x3327 (- 33 ?x2818)) 24003)) (- 1) 0))))
(let ((?x5416 (select ?x400 33)))
(let ((?x2750 (ite (>= ?x2727 (+ ?x5416 ?x5628)) 33 (ite (>= ?x2727 (+ ?x5011 ?x4700)) 32 ?x1471))))
(let ((?x4933 (ite (> 22803 (+ (+ ?x3327 (- 34 ?x2818)) 24003)) 1 (ite (<= 25203 (+ (+ ?x3327 (- 34 ?x2818)) 24003)) (- 1) 0))))
(let ((?x2733 (select ?x400 34)))
(let ((?x4989 (ite (> 22803 (+ (+ ?x3327 (- 35 ?x2818)) 24003)) 1 (ite (<= 25203 (+ (+ ?x3327 (- 35 ?x2818)) 24003)) (- 1) 0))))
(let ((?x4648 (select ?x400 35)))
(let ((?x4920 (ite (>= ?x2727 (+ ?x4648 ?x4989)) 35 (ite (>= ?x2727 (+ ?x2733 ?x4933)) 34 ?x2750))))
(let ((?x4180 (ite (> 22803 (+ (+ ?x3327 (- 36 ?x2818)) 24003)) 1 (ite (<= 25203 (+ (+ ?x3327 (- 36 ?x2818)) 24003)) (- 1) 0))))
(let ((?x5761 (select ?x400 36)))
(let ((?x2082 (ite (> 22803 (+ (+ ?x3327 (- 37 ?x2818)) 24003)) 1 (ite (<= 25203 (+ (+ ?x3327 (- 37 ?x2818)) 24003)) (- 1) 0))))
(let ((?x2228 (select ?x400 37)))
(let ((?x2362 (ite (>= ?x2727 (+ ?x2228 ?x2082)) 37 (ite (>= ?x2727 (+ ?x5761 ?x4180)) 36 ?x4920))))
(let ((?x1313 (ite (> 22803 (+ (+ ?x3327 (- 38 ?x2818)) 24003)) 1 (ite (<= 25203 (+ (+ ?x3327 (- 38 ?x2818)) 24003)) (- 1) 0))))
(let ((?x1803 (select ?x400 38)))
(let ((?x4476 (ite (> 22803 (+ (+ ?x3327 (- 39 ?x2818)) 24003)) 1 (ite (<= 25203 (+ (+ ?x3327 (- 39 ?x2818)) 24003)) (- 1) 0))))
(let ((?x2255 (select ?x400 39)))
(let ((?x4138 (ite (>= ?x2727 (+ ?x2255 ?x4476)) 39 (ite (>= ?x2727 (+ ?x1803 ?x1313)) 38 ?x2362))))
(let ((?x5125 (ite (> 22803 (+ (+ ?x3327 (- 40 ?x2818)) 24003)) 1 (ite (<= 25203 (+ (+ ?x3327 (- 40 ?x2818)) 24003)) (- 1) 0))))
(let ((?x2813 (select ?x400 40)))
(let ((?x5146 (ite (> 22803 (+ (+ ?x3327 (- 41 ?x2818)) 24003)) 1 (ite (<= 25203 (+ (+ ?x3327 (- 41 ?x2818)) 24003)) (- 1) 0))))
(let ((?x4821 (select ?x400 41)))
(let ((?x3489 (ite (>= ?x2727 (+ ?x4821 ?x5146)) 41 (ite (>= ?x2727 (+ ?x2813 ?x5125)) 40 ?x4138))))
(let ((?x4524 (ite (> 22803 (+ (+ ?x3327 (- 42 ?x2818)) 24003)) 1 (ite (<= 25203 (+ (+ ?x3327 (- 42 ?x2818)) 24003)) (- 1) 0))))
(let ((?x5006 (select ?x400 42)))
(let ((?x4867 (ite (> 22803 (+ (+ ?x3327 (- 43 ?x2818)) 24003)) 1 (ite (<= 25203 (+ (+ ?x3327 (- 43 ?x2818)) 24003)) (- 1) 0))))
(let ((?x2966 (select ?x400 43)))
(let ((?x5570 (ite (>= ?x2727 (+ ?x2966 ?x4867)) 43 (ite (>= ?x2727 (+ ?x5006 ?x4524)) 42 ?x3489))))
(let ((?x3081 (ite (> 22803 (+ (+ ?x3327 (- 44 ?x2818)) 24003)) 1 (ite (<= 25203 (+ (+ ?x3327 (- 44 ?x2818)) 24003)) (- 1) 0))))
(let ((?x1966 (select ?x400 44)))
(let ((?x1992 (ite (> 22803 (+ (+ ?x3327 (- 45 ?x2818)) 24003)) 1 (ite (<= 25203 (+ (+ ?x3327 (- 45 ?x2818)) 24003)) (- 1) 0))))
(let ((?x1523 (select ?x400 45)))
(let ((?x1128 (ite (>= ?x2727 (+ ?x1523 ?x1992)) 45 (ite (>= ?x2727 (+ ?x1966 ?x3081)) 44 ?x5570))))
(let ((?x4901 (ite (> 22803 (+ (+ ?x3327 (- 46 ?x2818)) 24003)) 1 (ite (<= 25203 (+ (+ ?x3327 (- 46 ?x2818)) 24003)) (- 1) 0))))
(let ((?x4553 (select ?x400 46)))
(let ((?x2300 (ite (> 22803 (+ (+ ?x3327 (- 47 ?x2818)) 24003)) 1 (ite (<= 25203 (+ (+ ?x3327 (- 47 ?x2818)) 24003)) (- 1) 0))))
(let ((?x5868 (select ?x400 47)))
(let ((?x1867 (ite (>= ?x2727 (+ ?x5868 ?x2300)) 47 (ite (>= ?x2727 (+ ?x4553 ?x4901)) 46 ?x1128))))
(let ((?x1660 (+ ?x3327 (- ?x1867 ?x2818))))
(let ((?x953 (+ ?x1660 24003)))
(let ((?x4056 (+ (select ?x400 ?x1867) (ite (> 22803 ?x953) 1 (ite (<= 25203 ?x953) (- 1) 0)))))
(let ((?x3313 (- ?x2727 ?x4056)))
(let ((?x3130 (ite (or (= 22802 ?x953) (= 25202 ?x953)) 28 (select ?x306 ?x1867))))
(let ((?x2973 (+ x_months 12)))
(let ((?x2642 (mod ?x2973 48)))
(let ((?x1860 (ite (> 22803 (+ ?x2973 24003)) 1 (ite (<= 25203 (+ ?x2973 24003)) (- 1) 0))))
(let ((?x1815 (ite (or (= 22802 (+ ?x2973 24003)) (= 25202 (+ ?x2973 24003))) 28 (select ?x306 ?x2642))))
(let ((?x3909 (- ?x1815 1)))
(let ((?x787 (+ (select ?x400 ?x2642) (ite $x4143 0 (ite (> x_beta ?x3909) ?x3909 x_beta)))))
(let ((?x4676 (+ (+ ?x787 ?x1860) 0)))
(let ((?x3306 (+ ?x2973 (* (div ?x4676 1461) 48))))
(let ((?x2822 (+ (+ ?x3306 (- 1 ?x2642)) 24003)))
(let ((?x2897 (mod ?x4676 1461)))
(let (($x2730 (>= ?x2897 (+ ?x4683 (ite (> 22803 ?x2822) 1 (ite (<= 25203 ?x2822) (- 1) 0))))))
(let ((?x4525 (ite (> 22803 (+ (+ ?x3306 (- 2 ?x2642)) 24003)) 1 (ite (<= 25203 (+ (+ ?x3306 (- 2 ?x2642)) 24003)) (- 1) 0))))
(let ((?x4188 (ite (> 22803 (+ (+ ?x3306 (- 3 ?x2642)) 24003)) 1 (ite (<= 25203 (+ (+ ?x3306 (- 3 ?x2642)) 24003)) (- 1) 0))))
(let ((?x4316 (ite (>= ?x2897 (+ ?x2202 ?x4188)) 3 (ite (>= ?x2897 (+ ?x5071 ?x4525)) 2 (ite $x2730 1 0)))))
(let ((?x2739 (ite (> 22803 (+ (+ ?x3306 (- 4 ?x2642)) 24003)) 1 (ite (<= 25203 (+ (+ ?x3306 (- 4 ?x2642)) 24003)) (- 1) 0))))
(let ((?x1696 (ite (> 22803 (+ (+ ?x3306 (- 5 ?x2642)) 24003)) 1 (ite (<= 25203 (+ (+ ?x3306 (- 5 ?x2642)) 24003)) (- 1) 0))))
(let ((?x1948 (ite (>= ?x2897 (+ ?x2600 ?x1696)) 5 (ite (>= ?x2897 (+ ?x2124 ?x2739)) 4 ?x4316))))
(let ((?x3092 (ite (> 22803 (+ (+ ?x3306 (- 6 ?x2642)) 24003)) 1 (ite (<= 25203 (+ (+ ?x3306 (- 6 ?x2642)) 24003)) (- 1) 0))))
(let ((?x1325 (ite (> 22803 (+ (+ ?x3306 (- 7 ?x2642)) 24003)) 1 (ite (<= 25203 (+ (+ ?x3306 (- 7 ?x2642)) 24003)) (- 1) 0))))
(let ((?x4413 (ite (>= ?x2897 (+ ?x2094 ?x1325)) 7 (ite (>= ?x2897 (+ ?x2295 ?x3092)) 6 ?x1948))))
(let ((?x1207 (ite (> 22803 (+ (+ ?x3306 (- 8 ?x2642)) 24003)) 1 (ite (<= 25203 (+ (+ ?x3306 (- 8 ?x2642)) 24003)) (- 1) 0))))
(let ((?x2437 (ite (> 22803 (+ (+ ?x3306 (- 9 ?x2642)) 24003)) 1 (ite (<= 25203 (+ (+ ?x3306 (- 9 ?x2642)) 24003)) (- 1) 0))))
(let ((?x4001 (ite (>= ?x2897 (+ ?x2053 ?x2437)) 9 (ite (>= ?x2897 (+ ?x1746 ?x1207)) 8 ?x4413))))
(let ((?x3268 (ite (> 22803 (+ (+ ?x3306 (- 10 ?x2642)) 24003)) 1 (ite (<= 25203 (+ (+ ?x3306 (- 10 ?x2642)) 24003)) (- 1) 0))))
(let ((?x2768 (ite (> 22803 (+ (+ ?x3306 (- 11 ?x2642)) 24003)) 1 (ite (<= 25203 (+ (+ ?x3306 (- 11 ?x2642)) 24003)) (- 1) 0))))
(let ((?x3841 (ite (>= ?x2897 (+ ?x1202 ?x2768)) 11 (ite (>= ?x2897 (+ ?x2603 ?x3268)) 10 ?x4001))))
(let ((?x3851 (ite (> 22803 (+ (+ ?x3306 (- 12 ?x2642)) 24003)) 1 (ite (<= 25203 (+ (+ ?x3306 (- 12 ?x2642)) 24003)) (- 1) 0))))
(let ((?x2273 (ite (> 22803 (+ (+ ?x3306 (- 13 ?x2642)) 24003)) 1 (ite (<= 25203 (+ (+ ?x3306 (- 13 ?x2642)) 24003)) (- 1) 0))))
(let ((?x4720 (ite (>= ?x2897 (+ ?x2614 ?x2273)) 13 (ite (>= ?x2897 (+ ?x2281 ?x3851)) 12 ?x3841))))
(let ((?x1909 (ite (> 22803 (+ (+ ?x3306 (- 14 ?x2642)) 24003)) 1 (ite (<= 25203 (+ (+ ?x3306 (- 14 ?x2642)) 24003)) (- 1) 0))))
(let ((?x2657 (ite (> 22803 (+ (+ ?x3306 (- 15 ?x2642)) 24003)) 1 (ite (<= 25203 (+ (+ ?x3306 (- 15 ?x2642)) 24003)) (- 1) 0))))
(let ((?x4379 (ite (>= ?x2897 (+ ?x2816 ?x2657)) 15 (ite (>= ?x2897 (+ ?x556 ?x1909)) 14 ?x4720))))
(let ((?x2191 (ite (> 22803 (+ (+ ?x3306 (- 16 ?x2642)) 24003)) 1 (ite (<= 25203 (+ (+ ?x3306 (- 16 ?x2642)) 24003)) (- 1) 0))))
(let ((?x4276 (ite (> 22803 (+ (+ ?x3306 (- 17 ?x2642)) 24003)) 1 (ite (<= 25203 (+ (+ ?x3306 (- 17 ?x2642)) 24003)) (- 1) 0))))
(let ((?x4827 (ite (>= ?x2897 (+ ?x1816 ?x4276)) 17 (ite (>= ?x2897 (+ ?x3277 ?x2191)) 16 ?x4379))))
(let ((?x3762 (ite (> 22803 (+ (+ ?x3306 (- 18 ?x2642)) 24003)) 1 (ite (<= 25203 (+ (+ ?x3306 (- 18 ?x2642)) 24003)) (- 1) 0))))
(let ((?x4231 (ite (> 22803 (+ (+ ?x3306 (- 19 ?x2642)) 24003)) 1 (ite (<= 25203 (+ (+ ?x3306 (- 19 ?x2642)) 24003)) (- 1) 0))))
(let ((?x5578 (ite (>= ?x2897 (+ ?x2259 ?x4231)) 19 (ite (>= ?x2897 (+ ?x1919 ?x3762)) 18 ?x4827))))
(let ((?x4240 (ite (> 22803 (+ (+ ?x3306 (- 20 ?x2642)) 24003)) 1 (ite (<= 25203 (+ (+ ?x3306 (- 20 ?x2642)) 24003)) (- 1) 0))))
(let ((?x4491 (ite (> 22803 (+ (+ ?x3306 (- 21 ?x2642)) 24003)) 1 (ite (<= 25203 (+ (+ ?x3306 (- 21 ?x2642)) 24003)) (- 1) 0))))
(let ((?x1884 (ite (>= ?x2897 (+ ?x2772 ?x4491)) 21 (ite (>= ?x2897 (+ ?x5193 ?x4240)) 20 ?x5578))))
(let ((?x4987 (ite (> 22803 (+ (+ ?x3306 (- 22 ?x2642)) 24003)) 1 (ite (<= 25203 (+ (+ ?x3306 (- 22 ?x2642)) 24003)) (- 1) 0))))
(let ((?x5181 (ite (> 22803 (+ (+ ?x3306 (- 23 ?x2642)) 24003)) 1 (ite (<= 25203 (+ (+ ?x3306 (- 23 ?x2642)) 24003)) (- 1) 0))))
(let ((?x1151 (ite (>= ?x2897 (+ ?x5639 ?x5181)) 23 (ite (>= ?x2897 (+ ?x4673 ?x4987)) 22 ?x1884))))
(let ((?x4609 (ite (> 22803 (+ (+ ?x3306 (- 24 ?x2642)) 24003)) 1 (ite (<= 25203 (+ (+ ?x3306 (- 24 ?x2642)) 24003)) (- 1) 0))))
(let ((?x5729 (ite (> 22803 (+ (+ ?x3306 (- 25 ?x2642)) 24003)) 1 (ite (<= 25203 (+ (+ ?x3306 (- 25 ?x2642)) 24003)) (- 1) 0))))
(let ((?x5541 (ite (>= ?x2897 (+ ?x5362 ?x5729)) 25 (ite (>= ?x2897 (+ ?x4482 ?x4609)) 24 ?x1151))))
(let ((?x1452 (ite (> 22803 (+ (+ ?x3306 (- 26 ?x2642)) 24003)) 1 (ite (<= 25203 (+ (+ ?x3306 (- 26 ?x2642)) 24003)) (- 1) 0))))
(let ((?x1308 (ite (> 22803 (+ (+ ?x3306 (- 27 ?x2642)) 24003)) 1 (ite (<= 25203 (+ (+ ?x3306 (- 27 ?x2642)) 24003)) (- 1) 0))))
(let ((?x5347 (ite (>= ?x2897 (+ ?x5077 ?x1308)) 27 (ite (>= ?x2897 (+ ?x4717 ?x1452)) 26 ?x5541))))
(let ((?x4819 (ite (> 22803 (+ (+ ?x3306 (- 28 ?x2642)) 24003)) 1 (ite (<= 25203 (+ (+ ?x3306 (- 28 ?x2642)) 24003)) (- 1) 0))))
(let ((?x5002 (ite (> 22803 (+ (+ ?x3306 (- 29 ?x2642)) 24003)) 1 (ite (<= 25203 (+ (+ ?x3306 (- 29 ?x2642)) 24003)) (- 1) 0))))
(let ((?x4619 (ite (>= ?x2897 (+ ?x5424 ?x5002)) 29 (ite (>= ?x2897 (+ ?x4706 ?x4819)) 28 ?x5347))))
(let ((?x4716 (ite (> 22803 (+ (+ ?x3306 (- 30 ?x2642)) 24003)) 1 (ite (<= 25203 (+ (+ ?x3306 (- 30 ?x2642)) 24003)) (- 1) 0))))
(let ((?x5197 (ite (> 22803 (+ (+ ?x3306 (- 31 ?x2642)) 24003)) 1 (ite (<= 25203 (+ (+ ?x3306 (- 31 ?x2642)) 24003)) (- 1) 0))))
(let ((?x4861 (ite (>= ?x2897 (+ ?x2777 ?x5197)) 31 (ite (>= ?x2897 (+ ?x4221 ?x4716)) 30 ?x4619))))
(let ((?x2250 (ite (> 22803 (+ (+ ?x3306 (- 32 ?x2642)) 24003)) 1 (ite (<= 25203 (+ (+ ?x3306 (- 32 ?x2642)) 24003)) (- 1) 0))))
(let ((?x2563 (ite (> 22803 (+ (+ ?x3306 (- 33 ?x2642)) 24003)) 1 (ite (<= 25203 (+ (+ ?x3306 (- 33 ?x2642)) 24003)) (- 1) 0))))
(let ((?x5478 (ite (>= ?x2897 (+ ?x5416 ?x2563)) 33 (ite (>= ?x2897 (+ ?x5011 ?x2250)) 32 ?x4861))))
(let ((?x4376 (ite (> 22803 (+ (+ ?x3306 (- 34 ?x2642)) 24003)) 1 (ite (<= 25203 (+ (+ ?x3306 (- 34 ?x2642)) 24003)) (- 1) 0))))
(let ((?x5595 (ite (> 22803 (+ (+ ?x3306 (- 35 ?x2642)) 24003)) 1 (ite (<= 25203 (+ (+ ?x3306 (- 35 ?x2642)) 24003)) (- 1) 0))))
(let ((?x4747 (ite (>= ?x2897 (+ ?x4648 ?x5595)) 35 (ite (>= ?x2897 (+ ?x2733 ?x4376)) 34 ?x5478))))
(let ((?x5776 (ite (> 22803 (+ (+ ?x3306 (- 36 ?x2642)) 24003)) 1 (ite (<= 25203 (+ (+ ?x3306 (- 36 ?x2642)) 24003)) (- 1) 0))))
(let ((?x4139 (ite (> 22803 (+ (+ ?x3306 (- 37 ?x2642)) 24003)) 1 (ite (<= 25203 (+ (+ ?x3306 (- 37 ?x2642)) 24003)) (- 1) 0))))
(let ((?x5679 (ite (>= ?x2897 (+ ?x2228 ?x4139)) 37 (ite (>= ?x2897 (+ ?x5761 ?x5776)) 36 ?x4747))))
(let ((?x5360 (ite (> 22803 (+ (+ ?x3306 (- 38 ?x2642)) 24003)) 1 (ite (<= 25203 (+ (+ ?x3306 (- 38 ?x2642)) 24003)) (- 1) 0))))
(let ((?x5886 (ite (> 22803 (+ (+ ?x3306 (- 39 ?x2642)) 24003)) 1 (ite (<= 25203 (+ (+ ?x3306 (- 39 ?x2642)) 24003)) (- 1) 0))))
(let ((?x2183 (ite (>= ?x2897 (+ ?x2255 ?x5886)) 39 (ite (>= ?x2897 (+ ?x1803 ?x5360)) 38 ?x5679))))
(let ((?x1797 (ite (> 22803 (+ (+ ?x3306 (- 40 ?x2642)) 24003)) 1 (ite (<= 25203 (+ (+ ?x3306 (- 40 ?x2642)) 24003)) (- 1) 0))))
(let ((?x4483 (ite (> 22803 (+ (+ ?x3306 (- 41 ?x2642)) 24003)) 1 (ite (<= 25203 (+ (+ ?x3306 (- 41 ?x2642)) 24003)) (- 1) 0))))
(let ((?x2482 (ite (>= ?x2897 (+ ?x4821 ?x4483)) 41 (ite (>= ?x2897 (+ ?x2813 ?x1797)) 40 ?x2183))))
(let ((?x4798 (ite (> 22803 (+ (+ ?x3306 (- 42 ?x2642)) 24003)) 1 (ite (<= 25203 (+ (+ ?x3306 (- 42 ?x2642)) 24003)) (- 1) 0))))
(let ((?x5063 (ite (> 22803 (+ (+ ?x3306 (- 43 ?x2642)) 24003)) 1 (ite (<= 25203 (+ (+ ?x3306 (- 43 ?x2642)) 24003)) (- 1) 0))))
(let ((?x5438 (ite (>= ?x2897 (+ ?x2966 ?x5063)) 43 (ite (>= ?x2897 (+ ?x5006 ?x4798)) 42 ?x2482))))
(let ((?x5372 (ite (> 22803 (+ (+ ?x3306 (- 44 ?x2642)) 24003)) 1 (ite (<= 25203 (+ (+ ?x3306 (- 44 ?x2642)) 24003)) (- 1) 0))))
(let ((?x1631 (ite (> 22803 (+ (+ ?x3306 (- 45 ?x2642)) 24003)) 1 (ite (<= 25203 (+ (+ ?x3306 (- 45 ?x2642)) 24003)) (- 1) 0))))
(let ((?x5888 (ite (>= ?x2897 (+ ?x1523 ?x1631)) 45 (ite (>= ?x2897 (+ ?x1966 ?x5372)) 44 ?x5438))))
(let ((?x5130 (ite (> 22803 (+ (+ ?x3306 (- 46 ?x2642)) 24003)) 1 (ite (<= 25203 (+ (+ ?x3306 (- 46 ?x2642)) 24003)) (- 1) 0))))
(let ((?x5704 (ite (> 22803 (+ (+ ?x3306 (- 47 ?x2642)) 24003)) 1 (ite (<= 25203 (+ (+ ?x3306 (- 47 ?x2642)) 24003)) (- 1) 0))))
(let ((?x4905 (ite (>= ?x2897 (+ ?x5868 ?x5704)) 47 (ite (>= ?x2897 (+ ?x4553 ?x5130)) 46 ?x5888))))
(let ((?x4955 (+ ?x3306 (- ?x4905 ?x2642))))
(let ((?x4793 (+ ?x4955 24003)))
(let ((?x2184 (+ (select ?x400 ?x4905) (ite (> 22803 ?x4793) 1 (ite (<= 25203 ?x4793) (- 1) 0)))))
(let ((?x4950 (- ?x2897 ?x2184)))
(let ((?x2587 (ite (or (= 22802 ?x4793) (= 25202 ?x4793)) 28 (select ?x306 ?x4905))))
(let (($x2870 (= (ite (= 1 (ite (>= ?x4950 ?x2587) 1 0)) (- ?x4950 ?x2587) ?x4950) (ite (= 1 (ite (>= ?x3313 ?x3130) 1 0)) (- ?x3313 ?x3130) ?x3313))))
(let (($x1200 (= (+ ?x4955 (ite (>= ?x4950 ?x2587) 1 0)) (+ ?x1660 (ite (>= ?x3313 ?x3130) 1 0)))))
(not (and $x1200 $x2870))))))))))))))))))))))))))))))))))))))))))))))))))))))))))))))))))))))))))))))))))))))))))))))))))))))))))))))))))))))))))))))))))))))))))))))))))))))))))))))))))))))))))))))))))))))))))))))))))))))))))))))))))))))))))))))))))))))))))))))))))))))))))))))))))))))))))))))))))))))))))))
(check-sat)
